1111100 AB
346 377 408 429 450 471 492 513 555 597 639 681 716 751 787 822 858 894 931 969 1007 1045 1074 1104 1134 1164 1193 1227 1260
1111100 BA
356 384 415 453 476 497 518 539 560 603 645 687 729 764 799 835 870 907 943 981 1019 1061 1104 1132 1160 1187 1216 1245 1276
0000011 AB
368 416 463 511 560 609 658 707 737 770 803 836 870 903 936 970 1003 1036 1070 1103 1136 1182 1228 1273
0000011 BA
405 458 506 554 603 652 701 750 780 813 846 879 913 946 979 1013 1046 1079 1113 1146 1179 1225 1270
